c instance by G2
c solution = 011001001
c Known solution cost is 371 
p cnf 9 30
w 75 65 32 92 41 40 10 4 12
-3 5 2 0
-1 8 5 0
-5 8 7 0
-4 -5 1 0
3 7 -2 0
2 8 -3 0
-9 -5 6 0
2 -6 -4 0
4 9 6 0
4 -5 1 0
6 1 3 0
-2 -5 8 0
-9 -2 -1 0
-2 -7 8 0
6 -4 1 0
1 -5 -3 0
3 -8 2 0
7 -3 9 0
6 7 -9 0
5 -6 2 0
-7 -2 -3 0
-5 6 8 0
-3 -4 -1 0
-6 -5 -2 0
-9 7 -8 0
2 -4 5 0
-6 -7 1 0
-6 -8 -4 0
-5 2 4 0
-4 -6 8 0
